c --- [ banner ] -------------------------------------------------------------
c 
c CaDiCaL Radically Simplified CDCL SAT Solver
c Copyright (c) 2016-2021 A. Biere, M. Fleury, N. Froleyks
c 
c Version 1.5.2 a5f15211db36c3956764e18194dd5bd63bf3b5e6
c g++ (GCC) 9.3.0 -Wall -Wextra -O3 -DNDEBUG
c Fri Oct 21 01:27:37 EDT 2022 Linux gra-login3 3.10.0-1160.66.1.el7.x86_64 x86_64
c 
c --- [ limit ] --------------------------------------------------------------
c 
c setting conflict limit to 200000 conflicts (due to '200000')
c 
c --- [ parsing input ] ------------------------------------------------------
c 
c reading DIMACS file from '33.cubes6170.adj'
c opening file to read '33.cubes6170.adj'
c found 'p cnf 6160 1595481' header
c parsed 1595481 clauses in 19.78 seconds process time
c closing file '33.cubes6170.adj'
c after reading 1457566815 bytes 1390.0 MB
c 
c --- [ options ] ------------------------------------------------------------
c 
c all options are set to their default value
c 
c --- [ solving ] ------------------------------------------------------------
c 
c time measured in process time since initialization
c 
c  seconds    reductions  redundant   irredundant
c          MB     restarts       trail       variables
c            level   conflicts       glue         remaining
c 
c * 19.79 1384  0 0   0    0    0  0% 0 1595422 2266 37%
c { 21.81 1452  0 0   0    0    0  0% 0 1595422 2266 37%
c i 23.15 1473 463 0   2   68   64 27% 3 1595422 2265 37%
c i 25.39 1495 180 0  35  183  120 23% 7 1595422 2264 37%
c i 26.21 1498 157 0  46  229  158 23% 12 1595422 2263 37%
c i 26.22 1498 157 0  47  230  158 23% 12 1595422 2256 37%
c i 26.79 1499 150 0  52  249  175 23% 13 1595422 2255 37%
c - 31.43 1451 133 1  65  300  211 24% 15 223371 2255 37%
c i 31.53 1451 132 1  65  302  212 24% 15 223371 2254 37%
c i 32.17 1360 124 1  78  355  256 24% 17 223371 2245 36%
c i 33.41 1360 96 1 113  532  384 25% 20 223371 2243 36%
c i 33.47 1360 95 1 113  539  390 25% 20 223371 2242 36%
c i 34.04 1360 82 1 124  696  520 26% 19 223371 2241 36%
c i 34.12 1360 80 1 124  722  540 26% 19 223371 2240 36%
c i 34.26 1360 76 1 128  785  586 26% 20 223371 2239 36%
c i 34.35 1360 73 1 139  826  619 26% 20 223371 2238 36%
c i 34.57 1360 67 1 141  965  720 27% 20 223371 2237 36%
c } 34.67 1360 66 1 145 1000  754 27% 20 223371 2237 36%
c [ 34.67 1360  0 1 145 1000  754  0% 0 223371 2237 36%
c O 34.67 1360 19 1 145 1005  759 29% 14 223371 2237 36%
c 
c  seconds    reductions  redundant   irredundant
c          MB     restarts       trail       variables
c            level   conflicts       glue         remaining
c 
c i 34.86 1360 41 1 145 1059  798 27% 28 223371 2236 36%
c i 34.88 1360 34 1 145 1112  844 29% 25 223371 2235 36%
c - 35.28 1448 34 2 145 1112  783 29% 25 223161 2235 36%
c i 35.33 1448 33 2 145 1121  790 29% 25 223161 2234 36%
c i 35.38 1448 30 2 145 1158  808 30% 23 223161 2233 36%
c i 35.43 1448 28 2 145 1242  867 30% 22 223161 2232 36%
c i 35.51 1448 28 2 145 1480 1014 31% 23 223161 2231 36%
c i 35.56 1448 28 2 145 1547 1062 30% 22 223161 2230 36%
c i 35.56 1448 28 2 145 1550 1064 30% 22 223161 2229 36%
c i 35.61 1448 26 2 145 1703 1194 30% 21 223161 2228 36%
c i 35.75 1448 26 2 145 1999 1413 30% 22 223161 2227 36%
c i 35.79 1448 27 2 146 2064 1454 30% 22 223161 2226 36%
c i 35.83 1448 28 2 146 2134 1504 30% 23 223161 2225 36%
c - 36.20 1446 28 3 146 2326 1280 30% 24 223131 2225 36%
c ] 36.80 1446 28 3 146 3000 1714 49% 23 223131 2225 36%
c { 36.80 1446 66 3 146 3000 1714 75% 20 223131 2225 36%
c F 36.81 1446 65 3 146 3007 1721 74% 20 223131 2225 36%
c i 36.91 1446 64 3 146 3032 1735 73% 19 223131 2224 36%
c i 37.28 1446 63 3 159 3110 1810 71% 20 223131 2223 36%
c i 37.35 1446 63 3 160 3115 1814 71% 20 223131 2222 36%
c 
c  seconds    reductions  redundant   irredundant
c          MB     restarts       trail       variables
c            level   conflicts       glue         remaining
c 
c i 37.89 1446 67 3 173 3179 1871 69% 22 223131 2221 36%
c i 38.00 1446 67 3 179 3206 1894 69% 23 223131 2220 36%
c i 38.24 1446 66 3 189 3243 1924 68% 22 223131 2219 36%
c i 38.25 1446 66 3 189 3246 1926 68% 22 223131 2218 36%
c i 38.34 1446 67 3 191 3262 1939 67% 22 223131 2217 36%
c i 38.49 1446 65 3 193 3320 1986 66% 22 223131 2216 36%
c i 38.56 1446 64 3 193 3369 2019 65% 22 223131 2215 36%
c i 38.69 1446 62 3 203 3475 2100 64% 23 223131 2214 36%
c i 39.63 1446 62 3 246 3731 2295 61% 23 223131 2213 36%
c i 39.92 1446 62 3 253 3775 2329 60% 24 223131 2212 36%
c - 40.49 1361 60 4 256 3944 1732 57% 23 223094 2212 36%
c i 42.36 1361 55 4 318 4549 2191 54% 23 223094 2211 36%
c d 42.97 1361 51 4 319 5000 2586 53% 23 223081 2206 36%
c 2 43.03 1361 51 4 319 5000 3559 53% 23 223078 2206 36%
c p 48.04 1361 51 4 319 5000 6380 53% 23 223078 2149 35%
c d 48.34 1361 51 4 319 5000 6313 53% 23 187197 2148 35%
c d 48.45 1361 51 4 319 5000 6313 53% 23 187195 2147 35%
c - 49.32 1361 43 5 319 5967 2529 52% 21 187195 2147 35%
c # 49.39 1361 43 5 319 6015 2563 52% 21 187195 2147 35%
c } 51.77 1361 41 5 366 7001 3314 51% 21 187195 2147 35%
c 
c  seconds    reductions  redundant   irredundant
c          MB     restarts       trail       variables
c            level   conflicts       glue         remaining
c 
c [ 51.77 1361 28 5 366 7001 3314 49% 23 187195 2147 35%
c - 53.27 1362 25 6 367 8260 2864 47% 21 187195 2147 35%
c I 55.01 1362 27 6 368 10017 4028 46% 22 187195 2147 35%
c - 55.99 1362 29 7 369 10932 3350 47% 23 187195 2147 35%
c - 59.09 1362 30 8 371 13988 3818 47% 24 187195 2147 35%
c ] 61.32 1362 29 8 371 15001 4478 47% 23 187195 2147 35%
c { 61.32 1362 41 8 371 15001 4478 51% 21 187195 2147 35%
c 2 61.36 1362 41 8 371 15001 5662 51% 21 187193 2147 35%
c p 63.01 1362 41 8 371 15001 8500 51% 21 187193 2147 35%
c B 63.21 1362 41 8 371 15018 8512 51% 21 187193 2147 35%
c - 65.50 1362 35 9 422 17424 4576 49% 20 187193 2147 35%
c s 66.57 1362 32 9 433 18920 5324 49% 19 185390 2147 35%
c v 68.99 1362 32 9 433 18920 5324 49% 19 185380 2147 35%
c w 69.06 1362 32 9 433 18920 5321 49% 19 185380 2147 35%
c t 69.06 1362 32 9 433 18920 5313 49% 19 185370 2147 35%
c e 69.67 1364 32 9 433 18920 4950 49% 19 182932 803 13%
c s 69.76 1364 32 9 433 18920 4949 49% 19 182546 803 13%
c W 72.45 1364 31 9 537 21019 6509 71% 19 182546 803 13%
c - 73.27 1364 31 10 572 21241 4962 71% 19 182546 803 13%
c - 79.64 1364 30 11 835 25405 5416 71% 19 182546 803 13%
c 
c  seconds    reductions    redundant   irredundant
c          MB      restarts        trail       variables
c            level     conflicts       glue        remaining
c 
c F 82.39 1364 29 11 983 28020 7191 71% 19 182546 803 13%
c - 86.17 1364 29 12 1174 29945 6134 71% 19 182546 803 13%
c 3 86.24 1364 29 12 1179 30003 6562 71% 19 182546 803 13%
c p 87.66 1364 29 12 1179 30003 8235 71% 19 182546 803 13%
c } 88.51 1364 29 12 1206 31002 8859 71% 19 182546 803 13%
c [ 88.51 1364 29 12 1206 31002 8859 130% 23 182546 803 13%
c - 89.88 1364 28 13 1208 34864 6648 112% 23 182546 803 13%
c B 90.35 1364 27 13 1209 36023 7293 108% 22 182546 803 13%
c ] 91.65 1364 27 13 1212 39842 9753 100% 23 182546 803 13%
c 1 91.65 1364 27 13 1212 39842 9753 100% 23 182546 803 13%
c 
c --- [ writing output ] -----------------------------------------------------
c 
c writing simplified CNF to DIMACS file 'simp/33.cubes6170.adj.simp1'
c * 91.65 1364 27 13 1212 39842 9753 100% 23 182546 803 13%
c opening file to write 'simp/33.cubes6170.adj.simp1'
c writing 'p cnf 6160 182546' header
c closing file 'simp/33.cubes6170.adj.simp1'
c after writing 76728020 bytes 73.2 MB
c wrote 182546 clauses in 0.54 seconds process time
c 
c --- [ writing extension ] --------------------------------------------------
c 
c writing extension stack to 'simp/33.cubes6170.adj.ext1'
c opening file to write 'simp/33.cubes6170.adj.ext1'
c closing file 'simp/33.cubes6170.adj.ext1'
c after writing 82998 bytes 0.1 MB
c wrote 3775 witnesses in 0.00 seconds process time
c 
c --- [ result ] -------------------------------------------------------------
c 
s SATISFIABLE
c 
c --- [ run-time profiling ] -------------------------------------------------
c 
c process time taken by individual solving procedures
c (percentage relative to process time for solving)
c 
c        59.11   82.26% search
c        42.17   58.68% unstable
c        19.78   27.53% parse
c        14.82   20.62% stable
c        12.75   17.74% simplify
c         8.03   11.18% probe
c         2.47    3.43% vivify
c         2.03    2.82% lucky
c         1.16    1.62% elim
c         0.18    0.25% subsume
c         0.10    0.14% walk
c         0.09    0.13% ternary
c   =================================
c        71.86   77.95% solve
c 
c last line shows process time for solving
c (percentage relative to total process time)
c 
c --- [ statistics ] ---------------------------------------------------------
c 
c chronological:              8097        20.32 %  of conflicts
c conflicts:                 39842       554.43    per second
c decisions:                102065      1420.31    per second
c eliminated:                 1344        21.82 %  of all variables
c fixed:                       862        13.99 %  of all variables
c learned:                   38983        97.84 %  per conflict
c learned_lits:            6345465       100.00 %  learned literals
c minimized:                     0         0.00 %  learned literals
c shrunken:                3878971        61.13 %  learned literals
c minishrunken:             500341         7.89 %  learned literals
c propagations:            4047786         0.06 M  per second
c reduced:                   17632        44.25 %  per conflict
c rephased:                      8      4980.25    interval
c restarts:                   1212        32.87    interval
c stabilizing:                   3        47.29 %  of conflicts
c substituted:                   7         0.11 %  of all variables
c subsumed:                  13746         0.41 %  of all clauses
c strengthened:               4513         0.13 %  of all clauses
c ternary:                    2567         0.67 %  of resolved
c vivified:                     25         0.00 %  of all clauses
c walked:                        1     39842.00    interval
c weakened:                   2913         2.95    average size
c 
c seconds are measured in process time for solving
c 
c --- [ resources ] ----------------------------------------------------------
c 
c total process time since initialization:        92.19    seconds
c total real time since initialization:           92.46    seconds
c maximum resident set size of process:         1533.65    MB
c 
c --- [ shutting down ] ------------------------------------------------------
c 
c exit 10
WARNING! DIMACS header mismatch: wrong number of variables.
============================[ Problem Statistics ]=============================
|                                                                             |
|  Number of variables:          3244                                         |
|  Number of clauses:          182546                                         |
|  Parse time:                   1.03 s                                       |
|  Simplification time:          0.02 s                                       |
|                                                                             |
============================[ Search Statistics ]====================================================
| Conflicts |          ORIGINAL         |          LEARNT          | Num Sols |      SUBGRAPHS      |
|           |    Vars  Clauses Literals |    Limit  Clauses Lit/Cl |          | Canonical Noncanon. |
=====================================================================================================
|       102 |    3145   182548 16645555 |     2000      102    121 |        0 |        24         2 |
|       254 |    3145   182550 16645733 |     2000      254     85 |        0 |        34         4 |
|       492 |    3145   182563 16646332 |     2000      492     84 |        0 |        61        17 |
|       883 |    3145   182617 16647385 |     2000      883     79 |        0 |        89        71 |
|      1633 |    3145   182861 16651682 |     2000     1633     70 |        0 |       168       315 |
|      2394 |    3145   182863 16651719 |     3600     1394     56 |        0 |       179       317 |
|      3535 |    3145   182865 16651816 |     3600     2535     73 |        0 |       190       319 |
|      5277 |    3145   182899 16652358 |     5003     2480     53 |        0 |       227       353 |
|     22865 |    3145   197925 16907356 |     9997     6262     17 |        0 |      4012     15379 |
|     32211 |    3145   203427 17004604 |    11202    10613     42 |        0 |      5522     20881 |
|     63582 |    3145   229032 17439255 |    16006    15988     15 |        0 |     11765     46486 |
|     75639 |    3145   232440 17500302 |    18408    11447     31 |        0 |     12714     49894 |
|    100193 |    3145   244020 17714108 |    20814    17007     40 |        0 |     15310     61474 |
|    171389 |    3145   295755 18443738 |    28010    16799     20 |        0 |     25818    113209 |
|    244104 |    3145   339278 19026193 |    32813    29917     20 |        0 |     33359    156732 |
=====================================================================================================
Number of solutions   : 0
Canonical subgraphs   : 38536          (18 /sec)
          order  3    : 1              (142857 /sec)
          order  4    : 1              (500000 /sec)
          order  5    : 1              (250000 /sec)
          order  6    : 1              (52632 /sec)
          order  7    : 1              (8403 /sec)
          order  8    : 2              (1353 /sec)
          order  9    : 6              (314 /sec)
          order 10    : 23             (90 /sec)
          order 11    : 110            (32 /sec)
          order 12    : 623            (15 /sec)
          order 13    : 3796           (16 /sec)
          order 14    : 10174          (20 /sec)
          order 15    : 23292          (18 /sec)
          order 16    : 379            (10 /sec)
          order 17    : 103            (9 /sec)
          order 18    : 21             (9 /sec)
          order 19    : 2              (6 /sec)
          order 20    : 0              (-nan /sec)
          order 21    : 0              (-nan /sec)
          order 22    : 0              (-nan /sec)
Noncanonical subgraphs: 189991         (160 /sec)
          order  3    : 0              (-nan /sec)
          order  4    : 0              (-nan /sec)
          order  5    : 0              (-nan /sec)
          order  6    : 0              (-nan /sec)
          order  7    : 0              (-nan /sec)
          order  8    : 0              (-nan /sec)
          order  9    : 0              (-nan /sec)
          order 10    : 0              (-nan /sec)
          order 11    : 0              (-nan /sec)
          order 12    : 0              (-nan /sec)
          order 13    : 8633           (6241 /sec)
          order 14    : 49639          (827 /sec)
          order 15    : 20982          (1277 /sec)
          order 16    : 110361         (100 /sec)
          order 17    : 336            (80 /sec)
          order 18    : 40             (52 /sec)
          order 19    : 0              (-nan /sec)
          order 20    : 0              (-nan /sec)
          order 21    : 0              (-nan /sec)
Canonicity checking   : 2154.35 s
Noncanonicity checking: 1184.69 s
Total canonicity time : 3339.04 s
database reductions   : 28
restarts              : 710
conflicts             : 295916         (85 /sec)
decisions             : 561042         (0.00 % random) (161 /sec)
propagations          : 12375947       (3558 /sec)
conflict literals     : 11444422       (55.43 % deleted)
actual reward         : 0.165995
Memory used           : 240.00 MB
CPU time              : 3478.39 s

UNSATISFIABLE
